c
c This is glucose 2.1 --  based on MiniSAT (Many thanks to MiniSAT team)
c
c WARNING: for repeatability, setting FPU to use double precision
c ========================================[ Problem Statistics ]===========================================
c |                                                                                                       |
c |  Number of variables:         68525                                                                   |
c |  Number of clauses:          134379                                                                   |
c |  Parse time:                   0.07 s                                                                 |
c |                                                                                                       |
c ========================================[ MAGIC CONSTANTS ]==============================================
c | Constants are supposed to work well together :-)                                                      |
c | however, if you find better choices, please let us known...                                           |
c |-------------------------------------------------------------------------------------------------------|
c |                                |                                |                                     |
c | - Restarts:                    | - Reduce Clause DB:            | - Minimize Asserting:               |
c |   * LBD Queue    :     50      |   * First     :   4000         |    * size <  30                     |
c |   * Trail  Queue :   5000      |   * Inc       :    300         |    * lbd  <   6                     |
c |   * K            :   0.80      |   * Special   :   1000         |                                     |
c |   * R            :   1.40      |   * Protected :  (lbd)< 30     |                                     |
c |                                |                                |                                     |
c ==================================[ Search Statistics (every  10000 conflicts) ]=========================
c |                                                                                                       |
c |          RESTARTS           |          ORIGINAL         |              LEARNT              | Progress |
c |       NB   Blocked  Avg Cfc |    Vars  Clauses Literals |   Red   Learnts    LBD2  Removed |          |
c =========================================================================================================
c |       14         0      714 |   33447   128891   291246 |     1     7995       78     1998 | 51.190 % |
c |       41         0      487 |   33422   128864   291165 |     3     6960      136    13030 | 51.227 % |
c |       55         0      545 |   33401   128846   291111 |     3    16958      166    13030 | 51.257 % |
c |       80         0      500 |   33393   128836   291081 |     4    17680      207    22305 | 51.269 % |
c |       91         0      549 |   33237   128677   290604 |     5     9154      248    34139 | 51.497 % |
c =========================================================================================================
c restarts              : 91 (562 conflicts in avg)
c blocked restarts      : 0 (multiple: 0) 
c last block at restart : 0
c nb ReduceDB           : 5
c nb removed Clauses    : 34139
c nb learnts DL2        : 292
c nb learnts size 2     : 205
c nb learnts size 1     : 23
c conflicts             : 51171          (5236 /sec)
c decisions             : 82355          (0.00 % random) (8427 /sec)
c propagations          : 35209289       (3602854 /sec)
c conflict literals     : 2656137        (56.68 % deleted)
c nb reduced Clauses    : 41
c CPU time              : 9.77261 s
s UNSATISFIABLE
